NAME : kroD100.23173.tour
COMMENT : Cost = 0_23173
COMMENT : Found by LKH [Keld Helsgaun] Thu Nov 16 20:48:33 2017
TYPE : TOUR
DIMENSION : 104
TOUR_SECTION
1
27
101
94
32
97
98
49
70
89
90
17
11
23
42
22
58
29
36
67
75
7
74
61
76
80
72
57
31
78
99
45
33
68
14
65
86
96
16
63
54
91
77
43
64
85
59
3
83
40
6
18
82
25
20
9
10
21
47
12
28
56
95
26
87
55
92
48
2
100
30
35
51
19
37
62
5
53
60
44
93
4
71
39
73
41
84
15
69
46
52
8
66
38
34
102
13
79
88
24
103
81
104
50
-1
EOF
